NAME : Giant_Problem.txt
COMMENT : 
TYPE : TSP
DIMENSION : 22
EDGE_WEIGHT_TYPE : EUC_2D
NODE_COORD_SECTION
1	295	272	
2	301	258
3	309	260
4	217	274
5	218	278
6	282	267
7	242	249
8	230	262
9	249	268
10	256	267
11	265	257
12	267	242
13	259	265
14	315	233
15	329	252
16	318	252
17	329	224
18	267	213
19	275	192
20	303	201
21	208	217
22	326	181
EOF
